253327.82,18.31,20.05
265799.99,17.45,19.11
255737.73,18.13,19.86
265389.17,17.47,19.14
263745.8,17.58,19.26
251765.45,18.42,20.18
264957.06,17.5,19.17
261951.42,17.7,19.39
264699.02,17.52,19.19
252656.11,18.35,20.1
260201.45,17.82,19.52
266745.88,17.39,19.04
267641.93,17.33,18.98
259127.31,17.9,19.6
253324.14,18.31,20.05
259322.38,17.88,19.59
249243.1,18.61,20.38
265695.78,17.45,19.12
250931.71,18.48,20.24
261273.13,17.75,19.44
